10 45
1 2 15
1 3 4
1 4 25
1 5 22
1 6 3
1 7 19
1 8 23
1 9 7
1 10 28
2 3 25
2 4 14
2 5 23
2 6 8
2 7 25
2 8 14
2 9 10
2 10 26
3 4 8
3 5 7
3 6 6
3 7 4
3 8 16
3 9 7
3 10 12
4 5 0
4 6 11
4 7 23
4 8 26
4 9 6
4 10 19
5 6 28
5 7 12
5 8 5
5 9 24
5 10 24
6 7 23
6 8 21
6 9 16
6 10 27
7 8 29
7 9 0
7 10 2
8 9 24
8 10 9
9 10 14
